m_couriers_count = 3;
n_items_count = 7;
l_max_loads = [15, 10, 7];
s_load_sizes = [3, 2, 6, 8, 5, 4, 4];
D_distances_matrix = [| 0, 3, 3, 6, 5, 6, 6, 2,
			 | 3, 0, 6, 3, 4, 7, 7, 3,
			 | 3, 4, 0, 7, 6, 3, 5, 3,
			 | 6, 3, 7, 0, 5, 6, 7, 4,
			 | 5, 4, 6, 3, 0, 3, 3, 3,
			 | 6, 7, 3, 6, 3, 0, 2, 4,
			 | 6, 7, 5, 6, 3, 2, 0, 4,
			 | 2, 3, 3, 4, 3, 4, 4, 0 |];
